0 2354 
1 2350 
2 2342 
3 2330 
4 2302 
5 2286 
6 2258 
7 2256 
8 2254 
9 2242 
10 2202 
11 2194 
12 2184 
13 2154 
14 2148 
15 2138 
16 2128 
17 2122 
18 2120 
19 2098 
20 2094 
21 2090 
22 2078 
23 2070 
24 2062 
25 2058 
26 2056 
27 2048 
28 2046 
29 2042 
30 2028 
31 2024 
32 2016 
33 2006 
34 1998 
35 1994 
36 1986 
37 1978 
38 1964 
39 1960 
40 1952 
41 1952 
42 1934 
43 1926 
44 1922 
45 1922 
46 1922 
47 1918 
48 1914 
49 1906 
50 1894 
51 1890 
52 1878 
53 1874 
54 1862 
55 1860 
56 1856 
57 1848 
58 1846 
59 1836 
60 1820 
61 1816 
62 1808 
63 1806 
64 1806 

